Route #1: 29 62 50 52 26 54 57
Route #2: 5 46 63 25 42 14 28
Route #3: 7 27 65 24 22 58
Route #4: 66 68 38 59 20 44 51
Route #5: 34 47 60 4 55 21 61 64
Route #6: 53 33 49 9 30 6 3 23 19
Route #7: 43 40 8 39 56 12
Route #8: 11 17 10 32 1 48 36 16 37
Route #9: 15 13 45 35 41 31 18 2 67
cost 1434.5301513671875